/*********************************************
 * OPL 12.6.0.0 Data
 * Author: Adrian Rodriguez Bazaga, Pau Rodriguez Esmerats
 * Creation Date: 06/12/2017 at 23:03:07
 *********************************************/

nNurses=265;
maxConsec=2;
maxPresence=7;
maxHours=5;
minHours=1;
hours=24;
demand= [42 35 64 59 35 64 59 36 39 22 4 7 6 8 12 7 10 3 8 1 34 71 43 55  ];
